100
128
21
22
51
47
23
8
2
15
11
52
10
24
17
20
46
37
20
16
8
37
59
36
42
40
47
6
44
20
58
2
40
14
38
55
56
41
14
14
62
25
52
18
39
25
38
45
41
17
61
23
15
41
25
16
57
55
46
17
39
24
20
36
47
12
3
17
32
17
17
31
27
47
20
3
20
21
52
25
51
37
25
27
52
21
19
41
30
58
37
18
10
27
48
23
32
25
31
21
28
44